TYPE : TSP
DIMENSION: 37
EDGE_DATA_FORMAT: EDGE_LIST
EDGE_WEIGHT_TYPE: EXPLICIT
EDGE_WEIGHT_FORMAT: FULL_MATRIX 
EDGE_DATA_SECTION
0 1
0 2
0 3
0 4
0 5
0 6
0 7
0 8
0 9
0 10
0 11
0 12
0 13
0 14
0 15
0 16
0 17
0 18
1 0
1 4
1 6
1 9
1 10
1 11
1 15
1 16
1 17
1 19
1 20
1 21
1 22
1 23
1 24
1 25
1 26
1 27
2 0
2 3
2 5
2 6
2 7
2 11
2 13
2 15
2 18
2 20
2 22
2 24
2 25
2 26
2 28
2 31
2 32
2 35
3 0
3 2
3 4
3 5
3 7
3 9
3 11
3 17
3 18
3 19
3 23
3 26
3 27
3 28
3 29
3 33
3 34
3 35
4 0
4 1
4 3
4 6
4 7
4 10
4 12
4 14
4 18
4 20
4 22
4 23
4 26
4 27
4 29
4 32
4 33
4 36
5 0
5 2
5 3
5 8
5 9
5 10
5 14
5 15
5 16
5 19
5 21
5 22
5 26
5 28
5 32
5 33
5 35
5 36
6 0
6 1
6 2
6 4
6 7
6 8
6 14
6 16
6 18
6 21
6 22
6 23
6 25
6 27
6 28
6 30
6 31
6 35
7 0
7 2
7 3
7 4
7 6
7 9
7 10
7 12
7 17
7 21
7 22
7 24
7 28
7 29
7 30
7 31
7 32
7 34
8 0
8 5
8 6
8 9
8 11
8 12
8 13
8 14
8 18
8 19
8 20
8 21
8 22
8 23
8 28
8 30
8 34
8 36
9 0
9 1
9 3
9 5
9 7
9 8
9 10
9 13
9 15
9 21
9 23
9 24
9 25
9 27
9 28
9 29
9 34
9 36
10 0
10 1
10 4
10 5
10 7
10 9
10 11
10 13
10 16
10 19
10 22
10 25
10 29
10 30
10 31
10 32
10 33
10 36
11 0
11 1
11 2
11 3
11 8
11 10
11 12
11 13
11 17
11 19
11 20
11 22
11 23
11 25
11 31
11 33
11 34
11 35
12 0
12 4
12 7
12 8
12 11
12 14
12 15
12 16
12 17
12 20
12 23
12 24
12 28
12 31
12 32
12 33
12 34
12 36
13 0
13 2
13 8
13 9
13 10
13 11
13 14
13 17
13 18
13 20
13 24
13 25
13 27
13 29
13 30
13 32
13 35
13 36
14 0
14 4
14 5
14 6
14 8
14 12
14 13
14 15
14 17
14 21
14 23
14 25
14 26
14 29
14 30
14 32
14 33
14 35
15 0
15 1
15 2
15 5
15 9
15 12
15 14
15 16
15 18
15 20
15 21
15 24
15 25
15 26
15 29
15 31
15 33
15 34
16 0
16 1
16 5
16 6
16 10
16 12
16 15
16 17
16 18
16 19
16 24
16 27
16 28
16 30
16 31
16 33
16 35
16 36
17 0
17 1
17 3
17 7
17 11
17 12
17 13
17 14
17 16
17 19
17 21
17 24
17 26
17 27
17 30
17 32
17 34
17 35
18 0
18 2
18 3
18 4
18 6
18 8
18 13
18 15
18 16
18 19
18 20
18 26
18 27
18 29
18 30
18 31
18 34
18 36
19 1
19 3
19 5
19 8
19 10
19 11
19 16
19 17
19 18
19 20
19 21
19 23
19 26
19 28
19 29
19 30
19 31
19 32
20 1
20 2
20 4
20 8
20 11
20 12
20 13
20 15
20 18
20 19
20 21
20 22
20 24
20 27
20 28
20 29
20 32
20 33
21 1
21 5
21 6
21 7
21 8
21 9
21 14
21 15
21 17
21 19
21 20
21 22
21 27
21 29
21 31
21 32
21 34
21 35
22 1
22 2
22 4
22 5
22 6
22 7
22 8
22 10
22 11
22 20
22 21
22 24
22 26
22 30
22 33
22 34
22 35
22 36
23 1
23 3
23 4
23 6
23 8
23 9
23 11
23 12
23 14
23 19
23 24
23 25
23 26
23 28
23 29
23 31
23 35
23 36
24 1
24 2
24 7
24 9
24 12
24 13
24 15
24 16
24 17
24 20
24 22
24 23
24 26
24 28
24 29
24 30
24 35
24 36
25 1
25 2
25 6
25 9
25 10
25 11
25 13
25 14
25 15
25 23
25 26
25 27
25 28
25 30
25 31
25 32
25 33
25 34
26 1
26 2
26 3
26 4
26 5
26 14
26 15
26 17
26 18
26 19
26 22
26 23
26 24
26 25
26 30
26 32
26 34
26 36
27 1
27 3
27 4
27 6
27 9
27 13
27 16
27 17
27 18
27 20
27 21
27 25
27 28
27 32
27 33
27 34
27 35
27 36
28 2
28 3
28 5
28 6
28 7
28 8
28 9
28 12
28 16
28 19
28 20
28 23
28 24
28 25
28 27
28 30
28 32
28 33
29 3
29 4
29 7
29 9
29 10
29 13
29 14
29 15
29 18
29 19
29 20
29 21
29 23
29 24
29 30
29 31
29 33
29 35
30 6
30 7
30 8
30 10
30 13
30 14
30 16
30 17
30 18
30 19
30 22
30 24
30 25
30 26
30 28
30 29
30 33
30 34
31 2
31 6
31 7
31 10
31 11
31 12
31 15
31 16
31 18
31 19
31 21
31 23
31 25
31 29
31 32
31 34
31 35
31 36
32 2
32 4
32 5
32 7
32 10
32 12
32 13
32 14
32 17
32 19
32 20
32 21
32 25
32 26
32 27
32 28
32 31
32 36
33 3
33 4
33 5
33 10
33 11
33 12
33 14
33 15
33 16
33 20
33 22
33 25
33 27
33 28
33 29
33 30
33 34
33 35
34 3
34 7
34 8
34 9
34 11
34 12
34 15
34 17
34 18
34 21
34 22
34 25
34 26
34 27
34 30
34 31
34 33
34 36
35 2
35 3
35 5
35 6
35 11
35 13
35 14
35 16
35 17
35 21
35 22
35 23
35 24
35 27
35 29
35 31
35 33
35 36
36 4
36 5
36 8
36 9
36 10
36 12
36 13
36 16
36 18
36 22
36 23
36 24
36 26
36 27
36 31
36 32
36 34
36 35
-1
EDGE_WEIGHT_SECTION
0.0	1.0	1.0	1.0	1.0	1.0	1.0	1.0	1.0	1.0	1.0	1.0	1.0	1.0	1.0	1.0	1.0	1.0	1.0	0.0	0.0	0.0	0.0	0.0	0.0	0.0	0.0	0.0	0.0	0.0	0.0	0.0	0.0	0.0	0.0	0.0	0.0
1.0	0.0	0.0	0.0	1.0	0.0	1.0	0.0	0.0	1.0	1.0	1.0	0.0	0.0	0.0	1.0	1.0	1.0	0.0	1.0	1.0	1.0	1.0	1.0	1.0	1.0	1.0	1.0	0.0	0.0	0.0	0.0	0.0	0.0	0.0	0.0	0.0
1.0	0.0	0.0	1.0	0.0	1.0	1.0	1.0	0.0	0.0	0.0	1.0	0.0	1.0	0.0	1.0	0.0	0.0	1.0	0.0	1.0	0.0	1.0	0.0	1.0	1.0	1.0	0.0	1.0	0.0	0.0	1.0	1.0	0.0	0.0	1.0	0.0
1.0	0.0	1.0	0.0	1.0	1.0	0.0	1.0	0.0	1.0	0.0	1.0	0.0	0.0	0.0	0.0	0.0	1.0	1.0	1.0	0.0	0.0	0.0	1.0	0.0	0.0	1.0	1.0	1.0	1.0	0.0	0.0	0.0	1.0	1.0	1.0	0.0
1.0	1.0	0.0	1.0	0.0	0.0	1.0	1.0	0.0	0.0	1.0	0.0	1.0	0.0	1.0	0.0	0.0	0.0	1.0	0.0	1.0	0.0	1.0	1.0	0.0	0.0	1.0	1.0	0.0	1.0	0.0	0.0	1.0	1.0	0.0	0.0	1.0
1.0	0.0	1.0	1.0	0.0	0.0	0.0	0.0	1.0	1.0	1.0	0.0	0.0	0.0	1.0	1.0	1.0	0.0	0.0	1.0	0.0	1.0	1.0	0.0	0.0	0.0	1.0	0.0	1.0	0.0	0.0	0.0	1.0	1.0	0.0	1.0	1.0
1.0	1.0	1.0	0.0	1.0	0.0	0.0	1.0	1.0	0.0	0.0	0.0	0.0	0.0	1.0	0.0	1.0	0.0	1.0	0.0	0.0	1.0	1.0	1.0	0.0	1.0	0.0	1.0	1.0	0.0	1.0	1.0	0.0	0.0	0.0	1.0	0.0
1.0	0.0	1.0	1.0	1.0	0.0	1.0	0.0	0.0	1.0	1.0	0.0	1.0	0.0	0.0	0.0	0.0	1.0	0.0	0.0	0.0	1.0	1.0	0.0	1.0	0.0	0.0	0.0	1.0	1.0	1.0	1.0	1.0	0.0	1.0	0.0	0.0
1.0	0.0	0.0	0.0	0.0	1.0	1.0	0.0	0.0	1.0	0.0	1.0	1.0	1.0	1.0	0.0	0.0	0.0	1.0	1.0	1.0	1.0	1.0	1.0	0.0	0.0	0.0	0.0	1.0	0.0	1.0	0.0	0.0	0.0	1.0	0.0	1.0
1.0	1.0	0.0	1.0	0.0	1.0	0.0	1.0	1.0	0.0	1.0	0.0	0.0	1.0	0.0	1.0	0.0	0.0	0.0	0.0	0.0	1.0	0.0	1.0	1.0	1.0	0.0	1.0	1.0	1.0	0.0	0.0	0.0	0.0	1.0	0.0	1.0
1.0	1.0	0.0	0.0	1.0	1.0	0.0	1.0	0.0	1.0	0.0	1.0	0.0	1.0	0.0	0.0	1.0	0.0	0.0	1.0	0.0	0.0	1.0	0.0	0.0	1.0	0.0	0.0	0.0	1.0	1.0	1.0	1.0	1.0	0.0	0.0	1.0
1.0	1.0	1.0	1.0	0.0	0.0	0.0	0.0	1.0	0.0	1.0	0.0	1.0	1.0	0.0	0.0	0.0	1.0	0.0	1.0	1.0	0.0	1.0	1.0	0.0	1.0	0.0	0.0	0.0	0.0	0.0	1.0	0.0	1.0	1.0	1.0	0.0
1.0	0.0	0.0	0.0	1.0	0.0	0.0	1.0	1.0	0.0	0.0	1.0	0.0	0.0	1.0	1.0	1.0	1.0	0.0	0.0	1.0	0.0	0.0	1.0	1.0	0.0	0.0	0.0	1.0	0.0	0.0	1.0	1.0	1.0	1.0	0.0	1.0
1.0	0.0	1.0	0.0	0.0	0.0	0.0	0.0	1.0	1.0	1.0	1.0	0.0	0.0	1.0	0.0	0.0	1.0	1.0	0.0	1.0	0.0	0.0	0.0	1.0	1.0	0.0	1.0	0.0	1.0	1.0	0.0	1.0	0.0	0.0	1.0	1.0
1.0	0.0	0.0	0.0	1.0	1.0	1.0	0.0	1.0	0.0	0.0	0.0	1.0	1.0	0.0	1.0	0.0	1.0	0.0	0.0	0.0	1.0	0.0	1.0	0.0	1.0	1.0	0.0	0.0	1.0	1.0	0.0	1.0	1.0	0.0	1.0	0.0
1.0	1.0	1.0	0.0	0.0	1.0	0.0	0.0	0.0	1.0	0.0	0.0	1.0	0.0	1.0	0.0	1.0	0.0	1.0	0.0	1.0	1.0	0.0	0.0	1.0	1.0	1.0	0.0	0.0	1.0	0.0	1.0	0.0	1.0	1.0	0.0	0.0
1.0	1.0	0.0	0.0	0.0	1.0	1.0	0.0	0.0	0.0	1.0	0.0	1.0	0.0	0.0	1.0	0.0	1.0	1.0	1.0	0.0	0.0	0.0	0.0	1.0	0.0	0.0	1.0	1.0	0.0	1.0	1.0	0.0	1.0	0.0	1.0	1.0
1.0	1.0	0.0	1.0	0.0	0.0	0.0	1.0	0.0	0.0	0.0	1.0	1.0	1.0	1.0	0.0	1.0	0.0	0.0	1.0	0.0	1.0	0.0	0.0	1.0	0.0	1.0	1.0	0.0	0.0	1.0	0.0	1.0	0.0	1.0	1.0	0.0
1.0	0.0	1.0	1.0	1.0	0.0	1.0	0.0	1.0	0.0	0.0	0.0	0.0	1.0	0.0	1.0	1.0	0.0	0.0	1.0	1.0	0.0	0.0	0.0	0.0	0.0	1.0	1.0	0.0	1.0	1.0	1.0	0.0	0.0	1.0	0.0	1.0
0.0	1.0	0.0	1.0	0.0	1.0	0.0	0.0	1.0	0.0	1.0	1.0	0.0	0.0	0.0	0.0	1.0	1.0	1.0	0.0	1.0	1.0	0.0	1.0	0.0	0.0	1.0	0.0	1.0	1.0	1.0	1.0	1.0	0.0	0.0	0.0	0.0
0.0	1.0	1.0	0.0	1.0	0.0	0.0	0.0	1.0	0.0	0.0	1.0	1.0	1.0	0.0	1.0	0.0	0.0	1.0	1.0	0.0	1.0	1.0	0.0	1.0	0.0	0.0	1.0	1.0	1.0	0.0	0.0	1.0	1.0	0.0	0.0	0.0
0.0	1.0	0.0	0.0	0.0	1.0	1.0	1.0	1.0	1.0	0.0	0.0	0.0	0.0	1.0	1.0	0.0	1.0	0.0	1.0	1.0	0.0	1.0	0.0	0.0	0.0	0.0	1.0	0.0	1.0	0.0	1.0	1.0	0.0	1.0	1.0	0.0
0.0	1.0	1.0	0.0	1.0	1.0	1.0	1.0	1.0	0.0	1.0	1.0	0.0	0.0	0.0	0.0	0.0	0.0	0.0	0.0	1.0	1.0	0.0	0.0	1.0	0.0	1.0	0.0	0.0	0.0	1.0	0.0	0.0	1.0	1.0	1.0	1.0
0.0	1.0	0.0	1.0	1.0	0.0	1.0	0.0	1.0	1.0	0.0	1.0	1.0	0.0	1.0	0.0	0.0	0.0	0.0	1.0	0.0	0.0	0.0	0.0	1.0	1.0	1.0	0.0	1.0	1.0	0.0	1.0	0.0	0.0	0.0	1.0	1.0
0.0	1.0	1.0	0.0	0.0	0.0	0.0	1.0	0.0	1.0	0.0	0.0	1.0	1.0	0.0	1.0	1.0	1.0	0.0	0.0	1.0	0.0	1.0	1.0	0.0	0.0	1.0	0.0	1.0	1.0	1.0	0.0	0.0	0.0	0.0	1.0	1.0
0.0	1.0	1.0	0.0	0.0	0.0	1.0	0.0	0.0	1.0	1.0	1.0	0.0	1.0	1.0	1.0	0.0	0.0	0.0	0.0	0.0	0.0	0.0	1.0	0.0	0.0	1.0	1.0	1.0	0.0	1.0	1.0	1.0	1.0	1.0	0.0	0.0
0.0	1.0	1.0	1.0	1.0	1.0	0.0	0.0	0.0	0.0	0.0	0.0	0.0	0.0	1.0	1.0	0.0	1.0	1.0	1.0	0.0	0.0	1.0	1.0	1.0	1.0	0.0	0.0	0.0	0.0	1.0	0.0	1.0	0.0	1.0	0.0	1.0
0.0	1.0	0.0	1.0	1.0	0.0	1.0	0.0	0.0	1.0	0.0	0.0	0.0	1.0	0.0	0.0	1.0	1.0	1.0	0.0	1.0	1.0	0.0	0.0	0.0	1.0	0.0	0.0	1.0	0.0	0.0	0.0	1.0	1.0	1.0	1.0	1.0
0.0	0.0	1.0	1.0	0.0	1.0	1.0	1.0	1.0	1.0	0.0	0.0	1.0	0.0	0.0	0.0	1.0	0.0	0.0	1.0	1.0	0.0	0.0	1.0	1.0	1.0	0.0	1.0	0.0	0.0	1.0	0.0	1.0	1.0	0.0	0.0	0.0
0.0	0.0	0.0	1.0	1.0	0.0	0.0	1.0	0.0	1.0	1.0	0.0	0.0	1.0	1.0	1.0	0.0	0.0	1.0	1.0	1.0	1.0	0.0	1.0	1.0	0.0	0.0	0.0	0.0	0.0	1.0	1.0	0.0	1.0	0.0	1.0	0.0
0.0	0.0	0.0	0.0	0.0	0.0	1.0	1.0	1.0	0.0	1.0	0.0	0.0	1.0	1.0	0.0	1.0	1.0	1.0	1.0	0.0	0.0	1.0	0.0	1.0	1.0	1.0	0.0	1.0	1.0	0.0	0.0	0.0	1.0	1.0	0.0	0.0
0.0	0.0	1.0	0.0	0.0	0.0	1.0	1.0	0.0	0.0	1.0	1.0	1.0	0.0	0.0	1.0	1.0	0.0	1.0	1.0	0.0	1.0	0.0	1.0	0.0	1.0	0.0	0.0	0.0	1.0	0.0	0.0	1.0	0.0	1.0	1.0	1.0
0.0	0.0	1.0	0.0	1.0	1.0	0.0	1.0	0.0	0.0	1.0	0.0	1.0	1.0	1.0	0.0	0.0	1.0	0.0	1.0	1.0	1.0	0.0	0.0	0.0	1.0	1.0	1.0	1.0	0.0	0.0	1.0	0.0	0.0	0.0	0.0	1.0
0.0	0.0	0.0	1.0	1.0	1.0	0.0	0.0	0.0	0.0	1.0	1.0	1.0	0.0	1.0	1.0	1.0	0.0	0.0	0.0	1.0	0.0	1.0	0.0	0.0	1.0	0.0	1.0	1.0	1.0	1.0	0.0	0.0	0.0	1.0	1.0	0.0
0.0	0.0	0.0	1.0	0.0	0.0	0.0	1.0	1.0	1.0	0.0	1.0	1.0	0.0	0.0	1.0	0.0	1.0	1.0	0.0	0.0	1.0	1.0	0.0	0.0	1.0	1.0	1.0	0.0	0.0	1.0	1.0	0.0	1.0	0.0	0.0	1.0
0.0	0.0	1.0	1.0	0.0	1.0	1.0	0.0	0.0	0.0	0.0	1.0	0.0	1.0	1.0	0.0	1.0	1.0	0.0	0.0	0.0	1.0	1.0	1.0	1.0	0.0	0.0	1.0	0.0	1.0	0.0	1.0	0.0	1.0	0.0	0.0	1.0
0.0	0.0	0.0	0.0	1.0	1.0	0.0	0.0	1.0	1.0	1.0	0.0	1.0	1.0	0.0	0.0	1.0	0.0	1.0	0.0	0.0	0.0	1.0	1.0	1.0	0.0	1.0	1.0	0.0	0.0	0.0	1.0	1.0	0.0	1.0	1.0	0.0
DIFF_EDGE
0 0
CHROM_NUMBER
10
EOF
